Gurobi Optimizer version 9.1.2 build v9.1.2rc0 (linux64)
Thread count: 36 physical cores, 72 logical processors, using up to 32 threads
Optimize a model with 12 rows, 57 columns and 590 nonzeros
Model fingerprint: 0xf32eec78
Model has 47 quadratic constraints
Coefficient statistics:
  Matrix range     [2e-05, 3e+00]
  QMatrix range    [1e+00, 1e+00]
  QLMatrix range   [1e+00, 1e+00]
  Objective range  [8e-03, 7e-01]
  Bounds range     [1e+00, 1e+00]
  RHS range        [1e+00, 1e+00]
Presolve removed 9 rows and 0 columns

Continuous model is non-convex -- solving as a MIP.

Presolve removed 9 rows and 0 columns
Presolve time: 0.00s
Presolved: 189 rows, 57 columns, 443 nonzeros
Presolved model has 47 bilinear constraint(s)
Variable types: 57 continuous, 0 integer (0 binary)

Root relaxation: objective -1.743721e+00, 44 iterations, 0.00 seconds

    Nodes    |    Current Node    |     Objective Bounds      |     Work
 Expl Unexpl |  Obj  Depth IntInf | Incumbent    BestBd   Gap | It/Node Time

     0     0   -1.74372    0   38          -   -1.74372      -     -    0s
H    0     0                       0.6147548   -1.74372   384%     -    0s
     0     0   -1.64739    0    1    0.61475   -1.64739   368%     -    0s
H    0     0                      -1.6450460   -1.64739  0.14%     -    0s
     0     0     cutoff    0        -1.64505   -1.64505  0.00%     -    0s

Cutting planes:
  RLT: 25
  BQP: 3

Explored 1 nodes (76 simplex iterations) in 0.01 seconds
Thread count was 32 (of 72 available processors)

Solution count 2: -1.64505 0.614755 
No other solutions better than -1.64505

Optimal solution found (tolerance 1.00e-04)
Best objective -1.645045978473e+00, best bound -1.645045978473e+00, gap 0.0000%

User-callback calls 77, time in user-callback 0.00 sec
Gurobi Optimizer version 9.1.2 build v9.1.2rc0 (linux64)
Thread count: 36 physical cores, 72 logical processors, using up to 32 threads
Optimize a model with 12 rows, 57 columns and 590 nonzeros
Model fingerprint: 0x769e6503
Model has 47 quadratic constraints
Coefficient statistics:
  Matrix range     [2e-05, 3e+00]
  QMatrix range    [1e+00, 1e+00]
  QLMatrix range   [1e+00, 1e+00]
  Objective range  [5e-03, 7e-01]
  Bounds range     [1e+00, 1e+00]
  RHS range        [1e+00, 1e+00]
Presolve removed 10 rows and 0 columns

Continuous model is non-convex -- solving as a MIP.

Presolve removed 10 rows and 0 columns
Presolve time: 0.00s
Presolved: 188 rows, 57 columns, 388 nonzeros
Presolved model has 47 bilinear constraint(s)
Variable types: 57 continuous, 0 integer (0 binary)

Root relaxation: objective -1.087364e+00, 30 iterations, 0.00 seconds

    Nodes    |    Current Node    |     Objective Bounds      |     Work
 Expl Unexpl |  Obj  Depth IntInf | Incumbent    BestBd   Gap | It/Node Time

     0     0   -1.08736    0   38          -   -1.08736      -     -    0s
H    0     0                       0.1082535   -1.08736  1104%     -    0s
     0     0   -0.91309    0   10    0.10825   -0.91309   943%     -    0s
H    0     0                      -0.8059196   -0.91309  13.3%     -    0s
     0     0   -0.88907    0   15   -0.80592   -0.88907  10.3%     -    0s
H    0     0                      -0.8513103   -0.88907  4.44%     -    0s
     0     0   -0.88752    0   15   -0.85131   -0.88752  4.25%     -    0s
     0     0   -0.88311    0   10   -0.85131   -0.88311  3.73%     -    0s
H    0     0                      -0.8724453   -0.88311  1.22%     -    0s
     0     0   -0.88301    0   10   -0.87245   -0.88301  1.21%     -    0s
     0     0   -0.88301    0   10   -0.87245   -0.88301  1.21%     -    0s
     0     0   -0.88277    0   10   -0.87245   -0.88277  1.18%     -    0s
     0     0   -0.88277    0   10   -0.87245   -0.88277  1.18%     -    0s
H    0     0                      -0.8814338   -0.88277  0.15%     -    0s
H    0     0                      -0.8815959   -0.88277  0.13%     -    0s
     0     2   -0.88277    0   10   -0.88160   -0.88277  0.13%     -    0s

Cutting planes:
  RLT: 22
  BQP: 2

Explored 3 nodes (105 simplex iterations) in 0.05 seconds
Thread count was 32 (of 72 available processors)

Solution count 6: -0.881596 -0.881434 -0.872445 ... 0.108254

Optimal solution found (tolerance 1.00e-04)
Best objective -8.815959268570e-01, best bound -8.816380629371e-01, gap 0.0048%

User-callback calls 130, time in user-callback 0.00 sec



objective value: -0.881595926857017
objective bound: -0.88163806293709
x_opt: [0.5000620416747976, 0.0, 0.0, 1.0, 0.0, 0.0, 0.0, 0.6415429666125356, 0.0, 1.0]
GUROBI solution time: 0.047396183013916016




